10 6 11 4 15 8 17 18 14 16 9 13 12 0 1 5 7 2 19 3  
4 15 9 8 14 10 6 11 5 18 19 17 12 2 7 0 1 13 16 3  
10 4 8 15 0 11 6 18 14 16 9 13 12 17 1 5 7 2 3 19  
10 4 8 15 6 11 0 18 14 16 9 19 12 17 1 5 7 13 2 3  
10 6 4 15 11 18 14 0 1 17 12 9 19 5 2 8 7 13 16 3  
10 4 8 15 0 11 6 18 14 16 9 1 17 12 7 5 13 2 3 19  
10 4 8 15 6 11 0 18 14 16 9 1 17 12 5 7 13 2 3 19  
4 15 10 6 9 11 14 5 8 7 18 19 17 1 0 12 13 2 16 3  
10 4 8 15 0 11 18 14 6 16 9 19 12 17 1 5 7 2 3 13  
4 15 18 10 6 14 11 17 12 7 1 0 9 19 5 8 2 13 16 3  
